WARNING: for repeatability, setting FPU to use double precision
============================[ Problem Statistics ]=============================
|                                                                             |
|  Number of variables:           271                                         |
|  Number of clauses:            1052                                         |
|  Parse time:                   0.00 s                                       |
|                                                                             |
============================[ Search Statistics ]==============================
| Conflicts |          ORIGINAL         |          LEARNT          | Progress |
|           |    Vars  Clauses Literals |    Limit  Clauses Lit/Cl |          |
===============================================================================
===============================================================================
restarts              : 1
conflicts             : 98             (inf /sec)
decisions             : 111            (0.00 % random) (inf /sec)
propagations          : 4828           (inf /sec)
conflict literals     : 485            (33.01 % deleted)
Memory used           : 19.00 MB
CPU time              : 0 s

UNSATISFIABLE
